% demand
num_movements = 28;
loading_factor = [1050, 850, 1800, 1550, 1750, 1500, 2000, 1300, 1000, 950, 1450, 1100, 1350, 850, 1650, 850, 950, 900, 1650, 900, 1750, 1800, 1750, 1500, 1650, 1100, 1950, 1350];
pickup_time = [0, 0, 0, 0, 2, 2, 3, 3, 4, 5, 5, 5, 6, 6, 7, 7, 7, 7, 7, 7, 9, 9, 9, 9, 10, 12, 12, 13];
delivery_time = [3, 1, 1, 1, 5, 6, 6, 4, 5, 6, 6, 6, 7, 7, 9, 9, 9, 9, 9, 9, 14, 12, 10, 12, 13, 14, 14, 14];

% transporter definition
total_capacity = 7000;
num_decks = 3;
capacity = [3000, 1000, 3000];

% ways out of decks
num_ways_out = 1;
paths_out = array3d(decks, ways_out, decks, [
% ways out of deck d1
2, 3, 0, 

% ways out of deck d2
3, 0, 0, 

% ways out of deck d3
0, 0, 0,	

]);

